50
99.0
0 49 39.58 0.08
1 48 43.49 0.08
2 47 47.25 0.09
3 46 61.84 0.08
4 45 46.91 0.09
5 44 58.07 0.07
6 43 54.14 0.08
7 42 52.74 0.07
8 41 44.26 0.08
9 40 58.94 0.09
10 39 45.31 0.08
11 38 52.05 0.07
12 37 53.09 0.08
13 36 49.34 0.07
14 35 49.76 0.08
15 34 52.08 0.06
16 33 47.54 0.08
17 32 45.94 0.08
18 31 56.04 0.07
19 30 43.2 0.08
20 29 43.33 0.08
21 28 40.93 0.07
22 27 50.84 0.08
23 26 65.2 0.07
24 25 55.16 0.08
25 24 47.36 0.06
26 23 46.99 0.09
27 22 53.51 0.07
28 21 53.98 0.09
29 20 35.35 0.07
30 19 53.4 0.07
31 18 47.87 0.07
32 17 56.91 0.07
33 16 56.2 0.08
34 15 45.0 0.06
35 14 52.28 0.07
36 13 37.34 0.04
37 12 62.86 0.07
38 11 51.39 0.06
39 10 60.95 0.07
40 9 46.78 0.06
41 8 44.45 0.1
42 7 66.29 0.12
43 6 33.72 0.06
44 5 56.49 0.07
45 4 50.34 0.07
46 3 72.27 0.09
47 2 65.97 0.08
48 1 90.86 0.11
